p cnf 20 17
c weights 0.2 0.8 0.2 0.8 0.2 0.8 0.1 0.9 0.1 0.9 0.1 0.9 0.1 0.9 0.3 0.7 0.3 0.7 0.3 0.7 0.4 0.6 0.4 0.6 0.4 0.6 0.4 0.6 1.0 1.0 1.0 1.0 1.0 1.0 1.0 0.0 1.0 0.0 1.0 0.0

c 1 stress(a)
c 2 stress(b)
c 3 stress(c)
c 4 friends(a,b)
c 5 friends(a,c)
c 6 friends(b,c)
c 7 friends(c,b)
c 8 p(a)
c 9 p(b)
c 10 p(c)
c 11 p(a,b)
c 12 p(a,c)
c 13 p(b,c)
c 14 p(c,b)
c 15 smokes(a)
c 16 smokes(b)
c 17 smokes(c)
c 18 R1
c 19 R2
c 20 R3

c --- smokes(a)
15 -1 -8 0
15 -4 -11 -16 0
15 -5 -12 -17 0
15 18 0
18 -1 -8 0
18 -4 -11 -16 0
18 -5 -12 -17 0

c --- smokes(b)
16 -2 -9 0
16 -6 -13 -17 0
16 19 0
19 -2 -9 0
19 -6 -13 -17 0

c --- smokes(c)
17 -3 -10 0
17 -7 -14 0
17 20 0
20 -3 -10 0
20 -7 -14 0

c --- query
15 0

